FourierSAT_Github_AIJ/benchmarks/MAXSAT_benchmarks/crafted/3/set-covering/scpcyc/scpcyc06_maxsat.cnf
c scpcyc06
p cnf 192 432
2 4 3 1 0
5 7 6 1 0
5 9 8 2 0
13 15 14 1 0
13 17 16 2 0
13 22 21 5 0
33 35 34 1 0
33 37 36 2 0
33 42 41 5 0
33 54 53 13 0
81 83 82 1 0
81 85 84 2 0
81 90 89 5 0
81 102 101 13 0
81 130 129 33 0
6 11 10 3 0
14 19 18 3 0
14 24 23 6 0
34 39 38 3 0
34 44 43 6 0
34 56 55 14 0
82 87 86 3 0
82 92 91 6 0
82 104 103 14 0
82 132 131 34 0
8 12 10 4 0
16 20 18 4 0
16 27 26 8 0
36 40 38 4 0
36 47 46 8 0
36 59 58 16 0
84 88 86 4 0
84 95 94 8 0
84 107 106 16 0
84 135 134 36 0
18 30 29 10 0
38 50 49 10 0
38 62 61 18 0
86 98 97 10 0
86 110 109 18 0
86 138 137 38 0
9 12 11 7 0
21 25 23 7 0
21 28 26 9 0
41 45 43 7 0
41 48 46 9 0
41 66 65 21 0
89 93 91 7 0
89 96 94 9 0
89 114 113 21 0
89 142 141 41 0
23 31 29 11 0
43 51 49 11 0
43 69 68 23 0
91 99 97 11 0
91 117 116 23 0
91 145 144 43 0
26 32 29 12 0
46 52 49 12 0
46 73 72 26 0
94 100 97 12 0
94 121 120 26 0
94 149 148 46 0
49 77 76 29 0
97 125 124 29 0
97 153 152 49 0
17 20 19 15 0
22 25 24 15 0
22 28 27 17 0
53 57 55 15 0
53 60 58 17 0
53 67 65 22 0
101 105 103 15 0
101 108 106 17 0
101 115 113 22 0
101 158 157 53 0
24 31 30 19 0
55 63 61 19 0
55 70 68 24 0
103 111 109 19 0
103 118 116 24 0
103 161 160 55 0
27 32 30 20 0
58 64 61 20 0
58 74 72 27 0
106 112 109 20 0
106 122 120 27 0
106 165 164 58 0
61 78 76 30 0
109 126 124 30 0
109 169 168 61 0
28 32 31 25 0
65 71 68 25 0
65 75 72 28 0
113 119 116 25 0
113 123 120 28 0
113 174 173 65 0
68 79 76 31 0
116 127 124 31 0
116 178 177 68 0
72 80 76 32 0
120 128 124 32 0
120 183 182 72 0
124 188 187 76 0
37 40 39 35 0
42 45 44 35 0
42 48 47 37 0
54 57 56 35 0
54 60 59 37 0
54 67 66 42 0
129 133 131 35 0
129 136 134 37 0
129 143 141 42 0
129 159 157 54 0
44 51 50 39 0
56 63 62 39 0
56 70 69 44 0
131 139 137 39 0
131 146 144 44 0
131 162 160 56 0
47 52 50 40 0
59 64 62 40 0
59 74 73 47 0
134 140 137 40 0
134 150 148 47 0
134 166 164 59 0
62 78 77 50 0
137 154 152 50 0
137 170 168 62 0
48 52 51 45 0
66 71 69 45 0
66 75 73 48 0
141 147 144 45 0
141 151 148 48 0
141 175 173 66 0
69 79 77 51 0
144 155 152 51 0
144 179 177 69 0
73 80 77 52 0
148 156 152 52 0
148 184 182 73 0
152 189 187 77 0
60 64 63 57 0
67 71 70 57 0
67 75 74 60 0
157 163 160 57 0
157 167 164 60 0
157 176 173 67 0
70 79 78 63 0
160 171 168 63 0
160 180 177 70 0
74 80 78 64 0
164 172 168 64 0
164 185 182 74 0
168 190 187 78 0
75 80 79 71 0
173 181 177 71 0
173 186 182 75 0
177 191 187 79 0
182 192 187 80 0
85 88 87 83 0
90 93 92 83 0
90 96 95 85 0
102 105 104 83 0
102 108 107 85 0
102 115 114 90 0
130 133 132 83 0
130 136 135 85 0
130 143 142 90 0
130 159 158 102 0
92 99 98 87 0
104 111 110 87 0
104 118 117 92 0
132 139 138 87 0
132 146 145 92 0
132 162 161 104 0
95 100 98 88 0
107 112 110 88 0
107 122 121 95 0
135 140 138 88 0
135 150 149 95 0
135 166 165 107 0
110 126 125 98 0
138 154 153 98 0
138 170 169 110 0
96 100 99 93 0
114 119 117 93 0
114 123 121 96 0
142 147 145 93 0
142 151 149 96 0
142 175 174 114 0
117 127 125 99 0
145 155 153 99 0
145 179 178 117 0
121 128 125 100 0
149 156 153 100 0
149 184 183 121 0
153 189 188 125 0
108 112 111 105 0
115 119 118 105 0
115 123 122 108 0
158 163 161 105 0
158 167 165 108 0
158 176 174 115 0
118 127 126 111 0
161 171 169 111 0
161 180 178 118 0
122 128 126 112 0
165 172 169 112 0
165 185 183 122 0
169 190 188 126 0
123 128 127 119 0
174 181 178 119 0
174 186 183 123 0
178 191 188 127 0
183 192 188 128 0
136 140 139 133 0
143 147 146 133 0
143 151 150 136 0
159 163 162 133 0
159 167 166 136 0
159 176 175 143 0
146 155 154 139 0
162 171 170 139 0
162 180 179 146 0
150 156 154 140 0
166 172 170 140 0
166 185 184 150 0
170 190 189 154 0
151 156 155 147 0
175 181 179 147 0
175 186 184 151 0
179 191 189 155 0
184 192 189 156 0
167 172 171 163 0
176 181 180 163 0
176 186 185 167 0
180 191 190 171 0
185 192 190 172 0
186 192 191 181 0
-1 0
-2 0
-3 0
-4 0
-5 0
-6 0
-7 0
-8 0
-9 0
-10 0
-11 0
-12 0
-13 0
-14 0
-15 0
-16 0
-17 0
-18 0
-19 0
-20 0
-21 0
-22 0
-23 0
-24 0
-25 0
-26 0
-27 0
-28 0
-29 0
-30 0
-31 0
-32 0
-33 0
-34 0
-35 0
-36 0
-37 0
-38 0
-39 0
-40 0
-41 0
-42 0
-43 0
-44 0
-45 0
-46 0
-47 0
-48 0
-49 0
-50 0
-51 0
-52 0
-53 0
-54 0
-55 0
-56 0
-57 0
-58 0
-59 0
-60 0
-61 0
-62 0
-63 0
-64 0
-65 0
-66 0
-67 0
-68 0
-69 0
-70 0
-71 0
-72 0
-73 0
-74 0
-75 0
-76 0
-77 0
-78 0
-79 0
-80 0
-81 0
-82 0
-83 0
-84 0
-85 0
-86 0
-87 0
-88 0
-89 0
-90 0
-91 0
-92 0
-93 0
-94 0
-95 0
-96 0
-97 0
-98 0
-99 0
-100 0
-101 0
-102 0
-103 0
-104 0
-105 0
-106 0
-107 0
-108 0
-109 0
-110 0
-111 0
-112 0
-113 0
-114 0
-115 0
-116 0
-117 0
-118 0
-119 0
-120 0
-121 0
-122 0
-123 0
-124 0
-125 0
-126 0
-127 0
-128 0
-129 0
-130 0
-131 0
-132 0
-133 0
-134 0
-135 0
-136 0
-137 0
-138 0
-139 0
-140 0
-141 0
-142 0
-143 0
-144 0
-145 0
-146 0
-147 0
-148 0
-149 0
-150 0
-151 0
-152 0
-153 0
-154 0
-155 0
-156 0
-157 0
-158 0
-159 0
-160 0
-161 0
-162 0
-163 0
-164 0
-165 0
-166 0
-167 0
-168 0
-169 0
-170 0
-171 0
-172 0
-173 0
-174 0
-175 0
-176 0
-177 0
-178 0
-179 0
-180 0
-181 0
-182 0
-183 0
-184 0
-185 0
-186 0
-187 0
-188 0
-189 0
-190 0
-191 0
-192 0
