FourierSAT_Github_AIJ/res/fs_1core/scpcyc06_maxsat.cnf.txt
o 70
o 69
o 68
